\ This file has been generated by DOcplex
\ ENCODING=ISO-8859-1
\Problem name: random_problem.lp

Minimize
 obj: 1020 x0 + 510 x1 + 255 x2 + 412 x3 + 206 x4 + 103 x5 + 180 x6 + 90 x7
      + 45 x8 - 596 x9 - 298 x10 - 149 x11 - 180 x12 - 90 x13 - 45 x14 + [
      4256 x0^2 + 4256 x0*x1 + 2128 x0*x2 + 3200 x0*x3 + 1600 x0*x4 + 800 x0*x5
      + 512 x0*x6 + 256 x0*x7 + 128 x0*x8 + 4544 x0*x9 + 2272 x0*x10
      + 1136 x0*x11 + 3136 x0*x12 + 1568 x0*x13 + 784 x0*x14 + 1064 x1^2
      + 1064 x1*x2 + 1600 x1*x3 + 800 x1*x4 + 400 x1*x5 + 256 x1*x6 + 128 x1*x7
      + 64 x1*x8 + 2272 x1*x9 + 1136 x1*x10 + 568 x1*x11 + 1568 x1*x12
      + 784 x1*x13 + 392 x1*x14 + 266 x2^2 + 800 x2*x3 + 400 x2*x4 + 200 x2*x5
      + 128 x2*x6 + 64 x2*x7 + 32 x2*x8 + 1136 x2*x9 + 568 x2*x10 + 284 x2*x11
      + 784 x2*x12 + 392 x2*x13 + 196 x2*x14 + 3936 x3^2 + 3936 x3*x4
      + 1968 x3*x5 + 3904 x3*x6 + 1952 x3*x7 + 976 x3*x8 + 3840 x3*x9
      + 1920 x3*x10 + 960 x3*x11 + 5184 x3*x12 + 2592 x3*x13 + 1296 x3*x14
      + 984 x4^2 + 984 x4*x5 + 1952 x4*x6 + 976 x4*x7 + 488 x4*x8 + 1920 x4*x9
      + 960 x4*x10 + 480 x4*x11 + 2592 x4*x12 + 1296 x4*x13 + 648 x4*x14
      + 246 x5^2 + 976 x5*x6 + 488 x5*x7 + 244 x5*x8 + 960 x5*x9 + 480 x5*x10
      + 240 x5*x11 + 1296 x5*x12 + 648 x5*x13 + 324 x5*x14 + 10112 x6^2
      + 10112 x6*x7 + 5056 x6*x8 + 1728 x6*x9 + 864 x6*x10 + 432 x6*x11
      + 4096 x6*x12 + 2048 x6*x13 + 1024 x6*x14 + 2528 x7^2 + 2528 x7*x8
      + 864 x7*x9 + 432 x7*x10 + 216 x7*x11 + 2048 x7*x12 + 1024 x7*x13
      + 512 x7*x14 + 632 x8^2 + 432 x8*x9 + 216 x8*x10 + 108 x8*x11
      + 1024 x8*x12 + 512 x8*x13 + 256 x8*x14 + 3072 x9^2 + 3072 x9*x10
      + 1536 x9*x11 + 2240 x9*x12 + 1120 x9*x13 + 560 x9*x14 + 768 x10^2
      + 768 x10*x11 + 1120 x10*x12 + 560 x10*x13 + 280 x10*x14 + 192 x11^2
      + 560 x11*x12 + 280 x11*x13 + 140 x11*x14 + 2656 x12^2 + 2656 x12*x13
      + 1328 x12*x14 + 664 x13^2 + 664 x13*x14 + 166 x14^2 ]/2
Subject To
 c0: 4 x0 + 2 x1 + x2 + 4 x3 + 2 x4 + x5 + 4 x6 + 2 x7 + x8 + 4 x9 + 2 x10 + x11
     + 4 x12 + 2 x13 + x14 = 7

Bounds
 0 <= x0 <= 1
 0 <= x1 <= 1
 0 <= x2 <= 1
 0 <= x3 <= 1
 0 <= x4 <= 1
 0 <= x5 <= 1
 0 <= x6 <= 1
 0 <= x7 <= 1
 0 <= x8 <= 1
 0 <= x9 <= 1
 0 <= x10 <= 1
 0 <= x11 <= 1
 0 <= x12 <= 1
 0 <= x13 <= 1
 0 <= x14 <= 1

Binaries
 x0 x1 x2 x3 x4 x5 x6 x7 x8 x9 x10 x11 x12 x13 x14
End
